(declare-fun x () (_ FloatingPoint 11 53))
(declare-fun y () (_ FloatingPoint 11 53))
(declare-fun z () (_ FloatingPoint 11 53))
(assert (let ((.def_13 (fp.eq z y)))
.def_13))
(assert (let ((.def_15 (fp.mul RNE z y)))
(let ((.def_16 (fp.eq x .def_15)))
.def_16)))
(assert (let ((.def_17 (fp.lt x (fp #b0 #b00000000000 #b0000000000000000000000000000000000000000000000000000))))
.def_17))
(check-sat)
